
&control

do_bc=.true.
do_ic=.false.
domain    = 1
simulation_year = YEAR
daily_file       = .true.,

dir_wrf              = 'data/nest/' 
bdy_cond_file_prefix   = 'wrfbdy'
init_cond_file_prefix  = 'wrfinput'
met_file_prefix='met_em'
met_file_suffix='.nc'

surf_press_name = 'PSFC'

dir_moz = 'data/parent/'
fn_moz  = 'wrfout_d01_'

spc_map = 'co -> co', 
          'o3 -> o3', 
          'so2 -> so2', 
          'no -> no', 
          'no2 -> no2',
          'h2o2 -> h2o2', 
          'no3 -> no3', 
          'n2o5 -> n2o5', 
          'hno3 -> hno3', 
          'nh3 -> nh3',
          'hcho -> hcho', 
          'pan -> pan', 
          'hono -> hono', 
          'tol -> tol', 
          'xyl -> xyl', 
          'hno4 -> hno4',
          'eth -> eth', 
          'iso -> iso', 
          'ald -> ald', 
          'ket -> ket', 
          'mgly -> mgly', 
          'csl -> csl', 
          'ol2 -> ol2', 
          'olt -> olt', 
          'oli -> oli', 
          'onit -> onit', 
          'ora2 -> ora2', 
          'op1 -> op1', 
          'op2 -> op2',
          'sulf -> sulf',
          'ho -> ho',
          'ho2 -> ho2',
          'hcl -> hcl',
          'par -> par',
          'isopo2->isopo2'
          'ethp->ethp' 
          'ch3o2->ch3o2'
          'ch3oh->ch3oh'
          'c2h5oh->c2h5oh'
          'to2->to2'
          'ro2->ro2'
          'ano2->ano2' 
          'xo2->xo2'
          'isoprd->isoprd'
          'isopp->isopp'
          'isopn->isopn'
          ' so4_a01-> so4_a01;1.0',
          ' no3_a01-> no3_a01;1.0',
          '  cl_a01->  cl_a01;1.0',
          '  na_a01->  na_a01;1.0',
          ' nh4_a01-> nh4_a01;1.0',
          ' oin_a01-> oin_a01;1.0',
          'dust_a01->tr1r1_a01+tr1r2_a01+tr1r3_a01+tr1r4_a01;1.0',
          '  oc_a01->  oc_a01;1.0',
          '  bc_a01->  bc_a01;1.0',
          ' num_a01-> num_a01',
          ' so4_a02-> so4_a02;1.0',
          ' no3_a02-> no3_a02;1.0',
          '  cl_a02->  cl_a02;1.0',
          '  na_a02->  na_a02;1.0',
          ' nh4_a02-> nh4_a02;1.0',
          ' oin_a02-> oin_a02;1.0',
          'dust_a02->tr1r1_a02+tr1r2_a02+tr1r3_a02+tr1r4_a02;1.0',
          '  oc_a02->  oc_a02;1.0',
          '  bc_a02->  bc_a02;1.0',
          ' num_a02-> num_a02',
          ' so4_a03-> so4_a03;1.0',
          ' no3_a03-> no3_a03;1.0',
          '  cl_a03->  cl_a03;1.0',
          '  na_a03->  na_a03;1.0',
          ' nh4_a03-> nh4_a03;1.0',
          ' oin_a03-> oin_a03;1.0',
          'dust_a03->tr1r1_a03+tr1r2_a03+tr1r3_a03+tr1r4_a03;1.0',
          '  oc_a03->  oc_a03;1.0',
          '  bc_a03->  bc_a03;1.0',
          ' num_a03-> num_a03',
          ' so4_a04-> so4_a04;1.0',
          ' no3_a04-> no3_a04;1.0',
          '  cl_a04->  cl_a04;1.0',
          '  na_a04->  na_a04;1.0',
          ' nh4_a04-> nh4_a04;1.0',
          ' oin_a04-> oin_a04;1.0',
          'dust_a04->tr1r1_a04+tr1r2_a04+tr1r3_a04+tr1r4_a04;1.0',
          '  oc_a04->  oc_a04;1.0',
          '  bc_a04->  bc_a04;1.0',
          ' num_a04-> num_a04',
          ' so4_a05-> so4_a05;1.0',
          ' no3_a05-> no3_a05;1.0',
          '  cl_a05->  cl_a05;1.0',
          '  na_a05->  na_a05;1.0',
          ' nh4_a05-> nh4_a05;1.0',
          ' oin_a05-> oin_a05;1.0',
          'dust_a05->tr1r1_a05+tr1r2_a05+tr1r3_a05+tr1r4_a05;1.0',
          '  oc_a05->  oc_a05;1.0',
          '  bc_a05->  bc_a05;1.0',
          ' num_a05-> num_a05',
          ' so4_a06-> so4_a06;1.0',
          ' no3_a06-> no3_a06;1.0',
          '  cl_a06->  cl_a06;1.0',
          '  na_a06->  na_a06;1.0',
          ' nh4_a06-> nh4_a06;1.0',
          ' oin_a06-> oin_a06;1.0',
          'dust_a06->tr1r1_a06+tr1r2_a06+tr1r3_a06+tr1r4_a06;1.0',
          '  oc_a06->  oc_a06;1.0',
          '  bc_a06->  bc_a06;1.0',
          ' num_a06-> num_a06',
          ' so4_a07-> so4_a07;1.0',
          ' no3_a07-> no3_a07;1.0',
          '  cl_a07->  cl_a07;1.0',
          '  na_a07->  na_a07;1.0',
          ' nh4_a07-> nh4_a07;1.0',
          ' oin_a07-> oin_a07;1.0',
          'dust_a07->tr1r1_a07+tr1r2_a07+tr1r3_a07+tr1r4_a07;1.0',
          '  oc_a07->  oc_a07;1.0',
          '  bc_a07->  bc_a07;1.0',
          ' num_a07-> num_a07',
          ' so4_a08-> so4_a08;1.0',
          ' no3_a08-> no3_a08;1.0',
          '  cl_a08->  cl_a08;1.0',
          '  na_a08->  na_a08;1.0',
          ' nh4_a08-> nh4_a08;1.0',
          ' oin_a08-> oin_a08;1.0',
          'dust_a08->tr1r1_a08+tr1r2_a08+tr1r3_a08+tr1r4_a08;1.0',
          '  oc_a08->  oc_a08;1.0',
          '  bc_a08->  bc_a08;1.0',
          ' num_a08-> num_a08',
/

